0,101,72,133,169,20,87,153,134,20,70
101,0,67,88,138,105,89,34,51,68,186
72,67,0,152,141,20,115,125,83,62,74
133,88,152,0,195,65,177,129,48,92,21
169,138,141,195,0,40,180,66,44,130,144
20,105,20,65,40,0,124,107,160,94,194
87,89,115,177,180,124,0,171,75,35,184
153,34,125,129,66,107,171,0,47,137,141
134,51,83,48,44,160,75,47,0,191,122
20,68,62,92,130,94,35,137,191,0,189
70,186,74,21,144,194,184,141,122,189,0
